
******************************************************************************
This program contains Ipopt, a library for large-scale nonlinear optimization.
 Ipopt is released as open source code under the Eclipse Public License (EPL).
         For more information visit http://projects.coin-or.org/Ipopt

This version of Ipopt was compiled from source code available at
    https://github.com/IDAES/Ipopt as part of the Institute for the Design of
    Advanced Energy Systems Process Systems Engineering Framework (IDAES PSE
    Framework) Copyright (c) 2018-2019. See https://github.com/IDAES/idaes-pse.

This version of Ipopt was compiled using HSL, a collection of Fortran codes
    for large-scale scientific computation.  All technical papers, sales and
    publicity material resulting from use of the HSL codes within IPOPT must
    contain the following acknowledgement:
        HSL, a collection of Fortran codes for large-scale scientific
        computation. See http://www.hsl.rl.ac.uk.
******************************************************************************

This is Ipopt version 3.13.2, running with linear solver ma27.

Number of nonzeros in equality constraint Jacobian...:      808
Number of nonzeros in inequality constraint Jacobian.:        0
Number of nonzeros in Lagrangian Hessian.............:      702

Total number of variables............................:      351
                     variables with only lower bounds:      108
                variables with lower and upper bounds:      189
                     variables with only upper bounds:        0
Total number of equality constraints.................:      350
Total number of inequality constraints...............:        0
        inequality constraints with only lower bounds:        0
   inequality constraints with lower and upper bounds:        0
        inequality constraints with only upper bounds:        0

iter    objective    inf_pr   inf_du lg(mu)  ||d||  lg(rg) alpha_du alpha_pr  ls
   0  0.0000000e+00 4.92e-01 8.88e-16  -1.0 0.00e+00    -  0.00e+00 0.00e+00   0
   1  5.9481723e+00 3.25e+00 3.45e+04  -1.0 2.86e+05    -  4.88e-01 5.24e-01h  1
   2  7.1254765e+00 2.90e+00 3.11e+04  -1.0 1.63e+05    -  7.95e-01 8.82e-02h  1
   3  7.3168027e+00 2.86e+00 3.07e+04  -1.0 2.12e+05    -  8.03e-01 1.42e-02h  1
   4  3.1990905e+01 2.74e-01 1.28e+04  -1.0 2.13e+05    -  8.09e-01 9.90e-01h  1
   5  3.6853486e+01 9.01e-03 4.70e+03  -1.0 2.79e+04    -  9.42e-01 9.90e-01h  1
   6  3.6961959e+01 1.64e-04 4.98e+01  -1.0 6.04e+02    -  9.90e-01 9.90e-01h  1
   7  3.6963194e+01 1.59e-04 2.24e+07  -1.0 4.79e+02    -  9.90e-01 3.09e-02f  6
   8  3.6966508e+01 1.54e-04 4.49e+07  -1.0 1.31e+03    -  9.92e-01 3.09e-02f  6
   9  3.7071304e+01 2.34e-05 6.98e+05  -1.0 1.29e+03    -  1.00e+00 9.90e-01H  1
iter    objective    inf_pr   inf_du lg(mu)  ||d||  lg(rg) alpha_du alpha_pr  ls
  10  3.7072026e+01 2.63e-07 2.49e+07  -1.0 8.81e+00    -  1.00e+00 9.90e-01h  1
  11  3.7072031e+01 2.63e-09 2.49e+09  -1.0 5.66e-02    -  1.00e+00 9.90e-01h  1
  12  3.7072031e+01 2.58e-11 2.49e+11  -1.0 5.66e-04    -  1.00e+00 9.90e-01h  1
In iteration 12, 27 Slacks too small, adjusting variable bounds
  13  3.7072031e+01 3.07e-12 2.49e+13  -1.0 5.69e-06    -  1.00e+00 9.90e-01h  1
  14  3.7072031e+01 2.04e-12 2.15e-01  -1.0 7.15e-07    -  1.00e+00 1.00e+00h  1
  15  3.7072031e+01 2.40e-12 2.54e+13  -9.0 1.47e+03    -  9.99e-01 1.74e-06f 20
  16  3.7072030e+01 2.73e-12 2.54e+13  -9.0 1.34e+03    -  9.99e-01 1.90e-06f 20
  17  3.7072027e+01 5.78e-13 2.54e+13  -9.0 1.34e+03    -  1.00e+00 3.05e-05f 16
  18  3.7072027e+01 9.98e-13 2.54e+13  -9.0 1.34e+03    -  1.00e+00 9.54e-07f 21
  19  3.7072027e+01 2.64e-12 2.54e+13  -9.0 1.34e+03    -  1.00e+00 1.91e-06f 20
iter    objective    inf_pr   inf_du lg(mu)  ||d||  lg(rg) alpha_du alpha_pr  ls
  20  3.6962999e+01 4.75e-04 1.18e+00  -9.0 1.34e+03    -  1.00e+00 1.00e+00f  1
  21  3.6962329e+01 3.78e-09 7.63e-05  -9.0 7.56e+00    -  1.00e+00 1.00e+00h  1
  22  3.6962329e+01 6.37e-13 2.91e-11  -9.0 4.01e-05    -  1.00e+00 1.00e+00h  1

Number of Iterations....: 22

                                   (scaled)                 (unscaled)
Objective...............:   3.6962329038191655e+01    3.6962329038191655e+01
Dual infeasibility......:   2.9103830456733704e-11    2.9103830456733704e-11
Constraint violation....:   6.3682392692498979e-13    6.3682392692498979e-13
Complementarity.........:   9.0909104304835442e-10    9.0909104304835442e-10
Overall NLP error.......:   7.1544191547275093e-12    9.0909104304835442e-10


Number of objective function evaluations             = 148
Number of objective gradient evaluations             = 23
Number of equality constraint evaluations            = 148
Number of inequality constraint evaluations          = 0
Number of equality constraint Jacobian evaluations   = 23
Number of inequality constraint Jacobian evaluations = 0
Number of Lagrangian Hessian evaluations             = 22
Total CPU secs in IPOPT (w/o function evaluations)   =      0.049
Total CPU secs in NLP function evaluations           =      1.012

EXIT: Optimal Solution Found.
